c book.min
c
p min 7 768
c
n 1 100
n 6 50
n 7 -150
c
a 1 2 0 5 3
a 1 2 0 5 6
a 1 2 0 5 9
a 1 2 0 5 13
a 1 2 0 5 16
a 1 2 0 5 19
a 1 2 0 5 22
a 1 2 0 5 25
a 1 2 0 5 28
a 1 2 0 5 31
a 1 2 0 5 34
a 1 2 0 5 38
a 1 2 0 5 41
a 1 2 0 5 44
a 1 2 0 5 47
a 1 2 0 5 50
a 1 2 0 5 53
a 1 2 0 5 56
a 1 2 0 5 59
a 1 2 0 5 63
a 1 2 0 5 66
a 1 2 0 5 69
a 1 2 0 5 72
a 1 2 0 5 75
a 1 2 0 5 78
a 1 2 0 5 81
a 1 2 0 5 84
a 1 2 0 5 88
a 1 2 0 5 91
a 1 2 0 5 94
a 1 2 0 5 97
a 1 2 0 5 100
a 2 1 0 5 3
a 2 1 0 5 6
a 2 1 0 5 9
a 2 1 0 5 13
a 2 1 0 5 16
a 2 1 0 5 19
a 2 1 0 5 22
a 2 1 0 5 25
a 2 1 0 5 28
a 2 1 0 5 31
a 2 1 0 5 34
a 2 1 0 5 38
a 2 1 0 5 41
a 2 1 0 5 44
a 2 1 0 5 47
a 2 1 0 5 50
a 2 1 0 5 53
a 2 1 0 5 56
a 2 1 0 5 59
a 2 1 0 5 63
a 2 1 0 5 66
a 2 1 0 5 69
a 2 1 0 5 72
a 2 1 0 5 75
a 2 1 0 5 78
a 2 1 0 5 81
a 2 1 0 5 84
a 2 1 0 5 88
a 2 1 0 5 91
a 2 1 0 5 94
a 2 1 0 5 97
a 2 1 0 5 100
c
a 1 3 0 5 3
a 1 3 0 5 6
a 1 3 0 5 9
a 1 3 0 5 13
a 1 3 0 5 16
a 1 3 0 5 19
a 1 3 0 5 22
a 1 3 0 5 25
a 1 3 0 5 28
a 1 3 0 5 31
a 1 3 0 5 34
a 1 3 0 5 38
a 1 3 0 5 41
a 1 3 0 5 44
a 1 3 0 5 47
a 1 3 0 5 50
a 1 3 0 5 53
a 1 3 0 5 56
a 1 3 0 5 59
a 1 3 0 5 63
a 1 3 0 5 66
a 1 3 0 5 69
a 1 3 0 5 72
a 1 3 0 5 75
a 1 3 0 5 78
a 1 3 0 5 81
a 1 3 0 5 84
a 1 3 0 5 88
a 1 3 0 5 91
a 1 3 0 5 94
a 1 3 0 5 97
a 1 3 0 5 100
a 3 1 0 5 3
a 3 1 0 5 6
a 3 1 0 5 9
a 3 1 0 5 13
a 3 1 0 5 16
a 3 1 0 5 19
a 3 1 0 5 22
a 3 1 0 5 25
a 3 1 0 5 28
a 3 1 0 5 31
a 3 1 0 5 34
a 3 1 0 5 38
a 3 1 0 5 41
a 3 1 0 5 44
a 3 1 0 5 47
a 3 1 0 5 50
a 3 1 0 5 53
a 3 1 0 5 56
a 3 1 0 5 59
a 3 1 0 5 63
a 3 1 0 5 66
a 3 1 0 5 69
a 3 1 0 5 72
a 3 1 0 5 75
a 3 1 0 5 78
a 3 1 0 5 81
a 3 1 0 5 84
a 3 1 0 5 88
a 3 1 0 5 91
a 3 1 0 5 94
a 3 1 0 5 97
a 3 1 0 5 100
c
a 2 3 0 5 3
a 2 3 0 5 6
a 2 3 0 5 9
a 2 3 0 5 13
a 2 3 0 5 16
a 2 3 0 5 19
a 2 3 0 5 22
a 2 3 0 5 25
a 2 3 0 5 28
a 2 3 0 5 31
a 2 3 0 5 34
a 2 3 0 5 38
a 2 3 0 5 41
a 2 3 0 5 44
a 2 3 0 5 47
a 2 3 0 5 50
a 2 3 0 5 53
a 2 3 0 5 56
a 2 3 0 5 59
a 2 3 0 5 63
a 2 3 0 5 66
a 2 3 0 5 69
a 2 3 0 5 72
a 2 3 0 5 75
a 2 3 0 5 78
a 2 3 0 5 81
a 2 3 0 5 84
a 2 3 0 5 88
a 2 3 0 5 91
a 2 3 0 5 94
a 2 3 0 5 97
a 2 3 0 5 100
a 3 2 0 5 3
a 3 2 0 5 6
a 3 2 0 5 9
a 3 2 0 5 13
a 3 2 0 5 16
a 3 2 0 5 19
a 3 2 0 5 22
a 3 2 0 5 25
a 3 2 0 5 28
a 3 2 0 5 31
a 3 2 0 5 34
a 3 2 0 5 38
a 3 2 0 5 41
a 3 2 0 5 44
a 3 2 0 5 47
a 3 2 0 5 50
a 3 2 0 5 53
a 3 2 0 5 56
a 3 2 0 5 59
a 3 2 0 5 63
a 3 2 0 5 66
a 3 2 0 5 69
a 3 2 0 5 72
a 3 2 0 5 75
a 3 2 0 5 78
a 3 2 0 5 81
a 3 2 0 5 84
a 3 2 0 5 88
a 3 2 0 5 91
a 3 2 0 5 94
a 3 2 0 5 97
a 3 2 0 5 100
c
a 2 4 0 5 3
a 2 4 0 5 6
a 2 4 0 5 9
a 2 4 0 5 13
a 2 4 0 5 16
a 2 4 0 5 19
a 2 4 0 5 22
a 2 4 0 5 25
a 2 4 0 5 28
a 2 4 0 5 31
a 2 4 0 5 34
a 2 4 0 5 38
a 2 4 0 5 41
a 2 4 0 5 44
a 2 4 0 5 47
a 2 4 0 5 50
a 2 4 0 5 53
a 2 4 0 5 56
a 2 4 0 5 59
a 2 4 0 5 63
a 2 4 0 5 66
a 2 4 0 5 69
a 2 4 0 5 72
a 2 4 0 5 75
a 2 4 0 5 78
a 2 4 0 5 81
a 2 4 0 5 84
a 2 4 0 5 88
a 2 4 0 5 91
a 2 4 0 5 94
a 2 4 0 5 97
a 2 4 0 5 100
a 4 2 0 5 3
a 4 2 0 5 6
a 4 2 0 5 9
a 4 2 0 5 13
a 4 2 0 5 16
a 4 2 0 5 19
a 4 2 0 5 22
a 4 2 0 5 25
a 4 2 0 5 28
a 4 2 0 5 31
a 4 2 0 5 34
a 4 2 0 5 38
a 4 2 0 5 41
a 4 2 0 5 44
a 4 2 0 5 47
a 4 2 0 5 50
a 4 2 0 5 53
a 4 2 0 5 56
a 4 2 0 5 59
a 4 2 0 5 63
a 4 2 0 5 66
a 4 2 0 5 69
a 4 2 0 5 72
a 4 2 0 5 75
a 4 2 0 5 78
a 4 2 0 5 81
a 4 2 0 5 84
a 4 2 0 5 88
a 4 2 0 5 91
a 4 2 0 5 94
a 4 2 0 5 97
a 4 2 0 5 100
c
a 2 7 0 5 3
a 2 7 0 5 6
a 2 7 0 5 9
a 2 7 0 5 13
a 2 7 0 5 16
a 2 7 0 5 19
a 2 7 0 5 22
a 2 7 0 5 25
a 2 7 0 5 28
a 2 7 0 5 31
a 2 7 0 5 34
a 2 7 0 5 38
a 2 7 0 5 41
a 2 7 0 5 44
a 2 7 0 5 47
a 2 7 0 5 50
a 2 7 0 5 53
a 2 7 0 5 56
a 2 7 0 5 59
a 2 7 0 5 63
a 2 7 0 5 66
a 2 7 0 5 69
a 2 7 0 5 72
a 2 7 0 5 75
a 2 7 0 5 78
a 2 7 0 5 81
a 2 7 0 5 84
a 2 7 0 5 88
a 2 7 0 5 91
a 2 7 0 5 94
a 2 7 0 5 97
a 2 7 0 5 100
a 7 2 0 5 3
a 7 2 0 5 6
a 7 2 0 5 9
a 7 2 0 5 13
a 7 2 0 5 16
a 7 2 0 5 19
a 7 2 0 5 22
a 7 2 0 5 25
a 7 2 0 5 28
a 7 2 0 5 31
a 7 2 0 5 34
a 7 2 0 5 38
a 7 2 0 5 41
a 7 2 0 5 44
a 7 2 0 5 47
a 7 2 0 5 50
a 7 2 0 5 53
a 7 2 0 5 56
a 7 2 0 5 59
a 7 2 0 5 63
a 7 2 0 5 66
a 7 2 0 5 69
a 7 2 0 5 72
a 7 2 0 5 75
a 7 2 0 5 78
a 7 2 0 5 81
a 7 2 0 5 84
a 7 2 0 5 88
a 7 2 0 5 91
a 7 2 0 5 94
a 7 2 0 5 97
a 7 2 0 5 100
c
a 3 5 0 5 3
a 3 5 0 5 6
a 3 5 0 5 9
a 3 5 0 5 13
a 3 5 0 5 16
a 3 5 0 5 19
a 3 5 0 5 22
a 3 5 0 5 25
a 3 5 0 5 28
a 3 5 0 5 31
a 3 5 0 5 34
a 3 5 0 5 38
a 3 5 0 5 41
a 3 5 0 5 44
a 3 5 0 5 47
a 3 5 0 5 50
a 3 5 0 5 53
a 3 5 0 5 56
a 3 5 0 5 59
a 3 5 0 5 63
a 3 5 0 5 66
a 3 5 0 5 69
a 3 5 0 5 72
a 3 5 0 5 75
a 3 5 0 5 78
a 3 5 0 5 81
a 3 5 0 5 84
a 3 5 0 5 88
a 3 5 0 5 91
a 3 5 0 5 94
a 3 5 0 5 97
a 3 5 0 5 100
a 5 3 0 5 3
a 5 3 0 5 6
a 5 3 0 5 9
a 5 3 0 5 13
a 5 3 0 5 16
a 5 3 0 5 19
a 5 3 0 5 22
a 5 3 0 5 25
a 5 3 0 5 28
a 5 3 0 5 31
a 5 3 0 5 34
a 5 3 0 5 38
a 5 3 0 5 41
a 5 3 0 5 44
a 5 3 0 5 47
a 5 3 0 5 50
a 5 3 0 5 53
a 5 3 0 5 56
a 5 3 0 5 59
a 5 3 0 5 63
a 5 3 0 5 66
a 5 3 0 5 69
a 5 3 0 5 72
a 5 3 0 5 75
a 5 3 0 5 78
a 5 3 0 5 81
a 5 3 0 5 84
a 5 3 0 5 88
a 5 3 0 5 91
a 5 3 0 5 94
a 5 3 0 5 97
a 5 3 0 5 100
c
a 3 7 0 5 3
a 3 7 0 5 6
a 3 7 0 5 9
a 3 7 0 5 13
a 3 7 0 5 16
a 3 7 0 5 19
a 3 7 0 5 22
a 3 7 0 5 25
a 3 7 0 5 28
a 3 7 0 5 31
a 3 7 0 5 34
a 3 7 0 5 38
a 3 7 0 5 41
a 3 7 0 5 44
a 3 7 0 5 47
a 3 7 0 5 50
a 3 7 0 5 53
a 3 7 0 5 56
a 3 7 0 5 59
a 3 7 0 5 63
a 3 7 0 5 66
a 3 7 0 5 69
a 3 7 0 5 72
a 3 7 0 5 75
a 3 7 0 5 78
a 3 7 0 5 81
a 3 7 0 5 84
a 3 7 0 5 88
a 3 7 0 5 91
a 3 7 0 5 94
a 3 7 0 5 97
a 3 7 0 5 100
a 7 3 0 5 3
a 7 3 0 5 6
a 7 3 0 5 9
a 7 3 0 5 13
a 7 3 0 5 16
a 7 3 0 5 19
a 7 3 0 5 22
a 7 3 0 5 25
a 7 3 0 5 28
a 7 3 0 5 31
a 7 3 0 5 34
a 7 3 0 5 38
a 7 3 0 5 41
a 7 3 0 5 44
a 7 3 0 5 47
a 7 3 0 5 50
a 7 3 0 5 53
a 7 3 0 5 56
a 7 3 0 5 59
a 7 3 0 5 63
a 7 3 0 5 66
a 7 3 0 5 69
a 7 3 0 5 72
a 7 3 0 5 75
a 7 3 0 5 78
a 7 3 0 5 81
a 7 3 0 5 84
a 7 3 0 5 88
a 7 3 0 5 91
a 7 3 0 5 94
a 7 3 0 5 97
a 7 3 0 5 100
c
a 4 5 0 5 3
a 4 5 0 5 6
a 4 5 0 5 9
a 4 5 0 5 13
a 4 5 0 5 16
a 4 5 0 5 19
a 4 5 0 5 22
a 4 5 0 5 25
a 4 5 0 5 28
a 4 5 0 5 31
a 4 5 0 5 34
a 4 5 0 5 38
a 4 5 0 5 41
a 4 5 0 5 44
a 4 5 0 5 47
a 4 5 0 5 50
a 4 5 0 5 53
a 4 5 0 5 56
a 4 5 0 5 59
a 4 5 0 5 63
a 4 5 0 5 66
a 4 5 0 5 69
a 4 5 0 5 72
a 4 5 0 5 75
a 4 5 0 5 78
a 4 5 0 5 81
a 4 5 0 5 84
a 4 5 0 5 88
a 4 5 0 5 91
a 4 5 0 5 94
a 4 5 0 5 97
a 4 5 0 5 100
a 5 4 0 5 3
a 5 4 0 5 6
a 5 4 0 5 9
a 5 4 0 5 13
a 5 4 0 5 16
a 5 4 0 5 19
a 5 4 0 5 22
a 5 4 0 5 25
a 5 4 0 5 28
a 5 4 0 5 31
a 5 4 0 5 34
a 5 4 0 5 38
a 5 4 0 5 41
a 5 4 0 5 44
a 5 4 0 5 47
a 5 4 0 5 50
a 5 4 0 5 53
a 5 4 0 5 56
a 5 4 0 5 59
a 5 4 0 5 63
a 5 4 0 5 66
a 5 4 0 5 69
a 5 4 0 5 72
a 5 4 0 5 75
a 5 4 0 5 78
a 5 4 0 5 81
a 5 4 0 5 84
a 5 4 0 5 88
a 5 4 0 5 91
a 5 4 0 5 94
a 5 4 0 5 97
a 5 4 0 5 100
c
a 4 6 0 5 3
a 4 6 0 5 6
a 4 6 0 5 9
a 4 6 0 5 13
a 4 6 0 5 16
a 4 6 0 5 19
a 4 6 0 5 22
a 4 6 0 5 25
a 4 6 0 5 28
a 4 6 0 5 31
a 4 6 0 5 34
a 4 6 0 5 38
a 4 6 0 5 41
a 4 6 0 5 44
a 4 6 0 5 47
a 4 6 0 5 50
a 4 6 0 5 53
a 4 6 0 5 56
a 4 6 0 5 59
a 4 6 0 5 63
a 4 6 0 5 66
a 4 6 0 5 69
a 4 6 0 5 72
a 4 6 0 5 75
a 4 6 0 5 78
a 4 6 0 5 81
a 4 6 0 5 84
a 4 6 0 5 88
a 4 6 0 5 91
a 4 6 0 5 94
a 4 6 0 5 97
a 4 6 0 5 100
a 6 4 0 5 3
a 6 4 0 5 6
a 6 4 0 5 9
a 6 4 0 5 13
a 6 4 0 5 16
a 6 4 0 5 19
a 6 4 0 5 22
a 6 4 0 5 25
a 6 4 0 5 28
a 6 4 0 5 31
a 6 4 0 5 34
a 6 4 0 5 38
a 6 4 0 5 41
a 6 4 0 5 44
a 6 4 0 5 47
a 6 4 0 5 50
a 6 4 0 5 53
a 6 4 0 5 56
a 6 4 0 5 59
a 6 4 0 5 63
a 6 4 0 5 66
a 6 4 0 5 69
a 6 4 0 5 72
a 6 4 0 5 75
a 6 4 0 5 78
a 6 4 0 5 81
a 6 4 0 5 84
a 6 4 0 5 88
a 6 4 0 5 91
a 6 4 0 5 94
a 6 4 0 5 97
a 6 4 0 5 100
c
a 4 7 0 5 3
a 4 7 0 5 6
a 4 7 0 5 9
a 4 7 0 5 13
a 4 7 0 5 16
a 4 7 0 5 19
a 4 7 0 5 22
a 4 7 0 5 25
a 4 7 0 5 28
a 4 7 0 5 31
a 4 7 0 5 34
a 4 7 0 5 38
a 4 7 0 5 41
a 4 7 0 5 44
a 4 7 0 5 47
a 4 7 0 5 50
a 4 7 0 5 53
a 4 7 0 5 56
a 4 7 0 5 59
a 4 7 0 5 63
a 4 7 0 5 66
a 4 7 0 5 69
a 4 7 0 5 72
a 4 7 0 5 75
a 4 7 0 5 78
a 4 7 0 5 81
a 4 7 0 5 84
a 4 7 0 5 88
a 4 7 0 5 91
a 4 7 0 5 94
a 4 7 0 5 97
a 4 7 0 5 100
a 7 4 0 5 3
a 7 4 0 5 6
a 7 4 0 5 9
a 7 4 0 5 13
a 7 4 0 5 16
a 7 4 0 5 19
a 7 4 0 5 22
a 7 4 0 5 25
a 7 4 0 5 28
a 7 4 0 5 31
a 7 4 0 5 34
a 7 4 0 5 38
a 7 4 0 5 41
a 7 4 0 5 44
a 7 4 0 5 47
a 7 4 0 5 50
a 7 4 0 5 53
a 7 4 0 5 56
a 7 4 0 5 59
a 7 4 0 5 63
a 7 4 0 5 66
a 7 4 0 5 69
a 7 4 0 5 72
a 7 4 0 5 75
a 7 4 0 5 78
a 7 4 0 5 81
a 7 4 0 5 84
a 7 4 0 5 88
a 7 4 0 5 91
a 7 4 0 5 94
a 7 4 0 5 97
a 7 4 0 5 100
c
a 5 6 0 5 3
a 5 6 0 5 6
a 5 6 0 5 9
a 5 6 0 5 13
a 5 6 0 5 16
a 5 6 0 5 19
a 5 6 0 5 22
a 5 6 0 5 25
a 5 6 0 5 28
a 5 6 0 5 31
a 5 6 0 5 34
a 5 6 0 5 38
a 5 6 0 5 41
a 5 6 0 5 44
a 5 6 0 5 47
a 5 6 0 5 50
a 5 6 0 5 53
a 5 6 0 5 56
a 5 6 0 5 59
a 5 6 0 5 63
a 5 6 0 5 66
a 5 6 0 5 69
a 5 6 0 5 72
a 5 6 0 5 75
a 5 6 0 5 78
a 5 6 0 5 81
a 5 6 0 5 84
a 5 6 0 5 88
a 5 6 0 5 91
a 5 6 0 5 94
a 5 6 0 5 97
a 5 6 0 5 100
a 6 5 0 5 3
a 6 5 0 5 6
a 6 5 0 5 9
a 6 5 0 5 13
a 6 5 0 5 16
a 6 5 0 5 19
a 6 5 0 5 22
a 6 5 0 5 25
a 6 5 0 5 28
a 6 5 0 5 31
a 6 5 0 5 34
a 6 5 0 5 38
a 6 5 0 5 41
a 6 5 0 5 44
a 6 5 0 5 47
a 6 5 0 5 50
a 6 5 0 5 53
a 6 5 0 5 56
a 6 5 0 5 59
a 6 5 0 5 63
a 6 5 0 5 66
a 6 5 0 5 69
a 6 5 0 5 72
a 6 5 0 5 75
a 6 5 0 5 78
a 6 5 0 5 81
a 6 5 0 5 84
a 6 5 0 5 88
a 6 5 0 5 91
a 6 5 0 5 94
a 6 5 0 5 97
a 6 5 0 5 100
c
a 5 7 0 5 3
a 5 7 0 5 6
a 5 7 0 5 9
a 5 7 0 5 13
a 5 7 0 5 16
a 5 7 0 5 19
a 5 7 0 5 22
a 5 7 0 5 25
a 5 7 0 5 28
a 5 7 0 5 31
a 5 7 0 5 34
a 5 7 0 5 38
a 5 7 0 5 41
a 5 7 0 5 44
a 5 7 0 5 47
a 5 7 0 5 50
a 5 7 0 5 53
a 5 7 0 5 56
a 5 7 0 5 59
a 5 7 0 5 63
a 5 7 0 5 66
a 5 7 0 5 69
a 5 7 0 5 72
a 5 7 0 5 75
a 5 7 0 5 78
a 5 7 0 5 81
a 5 7 0 5 84
a 5 7 0 5 88
a 5 7 0 5 91
a 5 7 0 5 94
a 5 7 0 5 97
a 5 7 0 5 100
a 7 5 0 5 3
a 7 5 0 5 6
a 7 5 0 5 9
a 7 5 0 5 13
a 7 5 0 5 16
a 7 5 0 5 19
a 7 5 0 5 22
a 7 5 0 5 25
a 7 5 0 5 28
a 7 5 0 5 31
a 7 5 0 5 34
a 7 5 0 5 38
a 7 5 0 5 41
a 7 5 0 5 44
a 7 5 0 5 47
a 7 5 0 5 50
a 7 5 0 5 53
a 7 5 0 5 56
a 7 5 0 5 59
a 7 5 0 5 63
a 7 5 0 5 66
a 7 5 0 5 69
a 7 5 0 5 72
a 7 5 0 5 75
a 7 5 0 5 78
a 7 5 0 5 81
a 7 5 0 5 84
a 7 5 0 5 88
a 7 5 0 5 91
a 7 5 0 5 94
a 7 5 0 5 97
a 7 5 0 5 100
c
c eof
